
Gurobi 11.0.3 (linux64) logging started Mon Aug 25 16:47:14 2025

Set parameter LogFile to value "/home/yihong/Coding/OR_SUC/SUC_epstheta_results_bigM100000_thread4/case24_ieee_rts_theta0.001_epsilon0.1_gurobi_seed270000_num_gen100_N_WDR50_load_scaling_factor1_proposed_eps_T2quadra_cost_bc1.03.txt"
Set parameter TimeLimit to value 3600
Gurobi Optimizer version 11.0.3 build v11.0.3rc0 (linux64 - "Ubuntu 20.04.6 LTS")

CPU model: AMD EPYC 7532 32-Core Processor, instruction set [SSE2|AVX|AVX2]
Thread count: 64 physical cores, 128 logical processors, using up to 4 threads

Academic license 2399124 - for non-commercial use only - registered to yi___@ed.ac.uk
Optimize a model with 4290 rows, 2531 columns and 107910 nonzeros
Model fingerprint: 0xd120f17a
Model has 200 quadratic constraints
Variable types: 2331 continuous, 200 integer (200 binary)
Coefficient statistics:
  Matrix range     [3e-04, 2e+03]
  QMatrix range    [2e-03, 8e-03]
  QLMatrix range   [2e-01, 6e+01]
  Objective range  [1e+00, 1e+00]
  Bounds range     [1e+00, 1e+00]
  RHS range        [5e-02, 9e+03]
Presolve removed 3654 rows and 1238 columns
Presolve time: 0.03s
Presolved: 636 rows, 1293 columns, 4031 nonzeros
Presolved model has 200 quadratic constraint(s)
Variable types: 1093 continuous, 200 integer (200 binary)

Root relaxation: objective 1.631813e+03, 507 iterations, 0.00 seconds (0.00 work units)

    Nodes    |    Current Node    |     Objective Bounds      |     Work
 Expl Unexpl |  Obj  Depth IntInf | Incumbent    BestBd   Gap | It/Node Time

     0     0 1631.81342    0    2          - 1631.81342      -     -    0s
     0     0 30139.5921    0   62          - 30139.5921      -     -    0s
     0     0 62397.3772    0   32          - 62397.3772      -     -    0s
     0     0 62398.2815    0   30          - 62398.2815      -     -    0s
     0     0 62416.2284    0   10          - 62416.2284      -     -    0s
     0     0 62416.2695    0   10          - 62416.2695      -     -    0s
     0     0 62416.2695    0   10          - 62416.2695      -     -    0s
H    0     0                    62435.723271 62416.2695  0.03%     -    0s

Cutting planes:
  Gomory: 20
  Implied bound: 34
  MIR: 21
  Flow cover: 85

Explored 1 nodes (1331 simplex iterations) in 0.28 seconds (0.14 work units)
Thread count was 4 (of 128 available processors)

Solution count 1: 62435.7 

Optimal solution found (tolerance 1.00e-03)
Best objective 6.243572327100e+04, best bound 6.241626954896e+04, gap 0.0312%

Gurobi 11.0.3 (linux64) logging started Mon Aug 25 16:47:15 2025

Set parameter LogFile to value "/home/yihong/Coding/OR_SUC/SUC_epstheta_results_bigM100000_thread4/case24_ieee_rts_theta0.001_epsilon0.1_gurobi_seed270000_num_gen100_N_WDR50_load_scaling_factor1_proposed_eps_T2quadra_cost_bc1.03.txt"
Set parameter TimeLimit to value 3600
Gurobi Optimizer version 11.0.3 build v11.0.3rc0 (linux64 - "Ubuntu 20.04.6 LTS")

CPU model: AMD EPYC 7532 32-Core Processor, instruction set [SSE2|AVX|AVX2]
Thread count: 64 physical cores, 128 logical processors, using up to 4 threads

Academic license 2399124 - for non-commercial use only - registered to yi___@ed.ac.uk
Optimize a model with 4290 rows, 2532 columns and 108479 nonzeros
Model fingerprint: 0x91914e28
Model has 201 quadratic constraints
Variable types: 2332 continuous, 200 integer (200 binary)
Coefficient statistics:
  Matrix range     [3e-04, 2e+03]
  QMatrix range    [2e-03, 5e+01]
  QLMatrix range   [2e-01, 6e+01]
  Objective range  [1e+00, 1e+00]
  Bounds range     [1e-01, 1e+00]
  RHS range        [1e+00, 6e+04]
  QRHS range       [5e-02, 5e-02]
Presolve removed 3458 rows and 1142 columns
Presolve time: 0.03s
Presolved: 1034 rows, 1590 columns, 6098 nonzeros
Presolved model has 200 quadratic constraint(s)
Presolved model has 1 bilinear constraint(s)

Solving non-convex MIQCP

Variable types: 1386 continuous, 204 integer (204 binary)

Root relaxation: objective 1.499955e-05, 1407 iterations, 0.02 seconds (0.03 work units)

    Nodes    |    Current Node    |     Objective Bounds      |     Work
 Expl Unexpl |  Obj  Depth IntInf | Incumbent    BestBd   Gap | It/Node Time

     0     0    0.00001    0    5          -    0.00001      -     -    0s
     0     0    0.00002    0    3          -    0.00002      -     -    0s
     0     0    0.00002    0    1          -    0.00002      -     -    0s
H    0     0                       0.0010699    0.00002  98.6%     -    0s
     0     0    0.00002    0    1    0.00107    0.00002  98.6%     -    0s
H    0     0                       0.0004602    0.00002  96.7%     -    0s
     0     0    0.00024    0    3    0.00046    0.00024  48.2%     -    0s
     0     0    0.00024    0    3    0.00046    0.00024  48.2%     -    0s
     0     0    0.00027    0    5    0.00046    0.00027  42.3%     -    0s
H    0     0                       0.0003226    0.00027  17.7%     -    0s
     0     0    0.00031    0    5    0.00032    0.00031  3.34%     -    0s
     0     0    0.00031    0    3    0.00032    0.00031  3.34%     -    0s
     0     0    0.00031    0    3    0.00032    0.00031  3.34%     -    0s
     0     0    0.00031    0    3    0.00032    0.00031  3.34%     -    0s
H    0     0                       0.0003138    0.00031  0.61%     -    0s
     0     0    0.00031    0    3    0.00031    0.00031  0.58%     -    0s
H    0     0                       0.0003137    0.00031  0.54%     -    0s
     0     0    0.00031    0    3    0.00031    0.00031  0.19%     -    0s
     0     0    0.00031    0    3    0.00031    0.00031  0.19%     -    0s
     0     0    0.00031    0    3    0.00031    0.00031  0.19%     -    0s
     0     0    0.00031    0    1    0.00031    0.00031  0.19%     -    0s
     0     0    0.00031    0    1    0.00031    0.00031  0.19%     -    0s
H    0     0                       0.0003134    0.00031  0.11%     -    0s
     0     0    0.00031    0    1    0.00031    0.00031  0.11%     -    0s
H    0     0                       0.0003131    0.00031  0.00%     -    0s

Cutting planes:
  Implied bound: 3
  MIR: 3
  Flow cover: 2

Explored 1 nodes (2949 simplex iterations) in 0.53 seconds (0.35 work units)
Thread count was 4 (of 128 available processors)

Solution count 7: 0.000313055 0.000313389 0.000313655 ... 0.00106989

Optimal solution found (tolerance 1.00e-03)
Best objective 3.130547152632e-04, best bound 3.130529589860e-04, gap 0.0006%
